problems/csplib-prob015/SchursLemma-models/noch/O2/lingeling/model_1_3-3-18-solution000001.eprime-solution
language ESSENCE' 1.0

letting boxes_PartitionAsSet_ExplicitR5_ExplicitVarSizeWithMarker_Marker be [5, 6, 7; int(1..3)]
letting boxes_PartitionAsSet_ExplicitR5_ExplicitVarSizeWithMarker_Values be
        [[3, 5, 6, 13, 17, 1, 1, 1, 1, 1, 1, 1, 1, 1, 1, 1, 1, 1; int(1..18)],
         [7, 8, 10, 11, 14, 16, 1, 1, 1, 1, 1, 1, 1, 1, 1, 1, 1, 1; int(1..18)],
         [1, 2, 4, 9, 12, 15, 18, 1, 1, 1, 1, 1, 1, 1, 1, 1, 1, 1; int(1..18)]; int(1..3)]
