problems/csplib-prob015/SchursLemma-models/noch/O2/lingeling/model_1_3-3-18-solution000001.solution
language Essence 1.3

letting boxes be partition({1, 2, 4, 9, 12, 15, 18}, {3, 5, 6, 13, 17}, {7, 8, 10, 11, 14, 16})
